TCS_Benchmarks/redos_fix/corpus2_output_distinct_3837_3836_0_0.smt2
(set-logic QF_S)
(declare-const x String)
(assert (str.in.re x (re.inter  (re.++ (re.* (re.union (re.range "\u{00}" "\u{09}") (re.range "\u{0b}" "\u{0c}") (re.range "\u{0e}" "\u{84}") (re.range "\u{86}" "\u{ff}")) ) (re.+  (str.to.re "\u{20}") ))  (re.++ (re.* (re.union (re.range "\u{00}" "\u{09}") (re.range "\u{0b}" "\u{0c}") (re.range "\u{0e}" "\u{84}") (re.range "\u{86}" "\u{ff}")) ) (re.++  (re.++ (re.comp  (re.union  (str.to_re "\u{0A}") (re.union (re.range "\u{30}" "\u{39}") (re.range "\u{61}" "\u{7a}")))) (re.++  (str.to.re "\u{70}")  (str.to.re "\u{6d}"))) (re.+  (str.to.re "\u{20}") ))) )))
(check-sat)
(get-model)