TCS_Benchmarks/redos_fix/corpus2_output_distinct_3837_3836_0_0.txt
(.*)( +)
(.*)([^\n0-9a-z]pm)( +)